Name: Unknown (0.56_121.0295m/z)
Charge: 1-
PrecursorMZ: 121.0295
Comment: 0.56_121.0295m/z
Num Peaks: 4
51.5511 1956.6278
70.1431 9058.3545
92.0267 1903.2321
100.9135 2080.3359

Name: UMETA00032 (Histidine)
Compound Id: UMETA00032
Precursor_type: [M-H]-
PrecursorMZ: 154.0622
Comment: 0.79_154.0622m/z
Formula: C6H9N3O2
Num Peaks: 50
57.7857 674.7062
58.1785 685.1499
58.7938 912.5613
61.4393 739.9146
63.2479 907.6208
64.2410 892.2464
66.0344 2743.6054
67.0298 24409.5420
67.7111 911.6089
70.4463 2848.0791
70.4726 6721.7435
70.7757 706.1952
70.9817 898.8468
72.0088 54368.5436
72.2975 1007.4561
74.0243 2812.9400
78.9588 9402.0276
80.0379 28913.1956
81.0457 48934.0078
83.6522 734.0357
84.9028 703.0211
86.9830 965.7572
91.6353 756.2760
93.0458 340981.7822
93.0524 859.8283
94.9251 403265.7500
96.9221 191891.0833
96.9286 1847.9163
96.9600 5211.0023
96.9696 36421.7591
97.2035 3670.6556
98.9565 2100.0130
108.0567 53631.4491
109.0407 25056.6613
110.0723 112822.9698
114.9517 5125.5601
118.0411 15880.4217
120.3185 1009.9398
126.9037 26397.3757
136.0516 69426.7669
136.9169 3869.8928
137.0356 285415.6546
137.0460 1365.6418
137.2008 762.8954
137.8233 716.8983
142.9474 748.6632
150.0795 931.5239
151.0375 795.2822
153.8685 78633.3854
154.0622 711519.8776

Name: UMETA00028 (Glutamine)
Compound Id: UMETA00028
Precursor_type: [M-H]-
PrecursorMZ: 145.0618
Comment: 0.82_146.0691n
Formula: C5H10N2O3
Num Peaks: 16
59.9886 7068.7298
70.0244 48646.1823
70.0514 66336.0339
70.9199 7413.7526
72.4713 7968.0742
84.0450 10722.8079
87.8571 6733.8346
93.8526 8917.6621
97.2061 19094.7539
102.0558 180625.2604
102.5436 6406.4967
113.3126 7000.4082
117.1279 8056.4518
127.0514 50625.7305
128.0355 42681.7253
145.0615 6798.5592

Name: UMETA00028 (Glutamine)
Compound Id: UMETA00028
Precursor_type: [M-H2O-H]-
PrecursorMZ: 127.0513
Comment: 0.82_146.0691n
Formula: C5H10N2O3
Num Peaks: 15
50.5219 1301.6031
51.1633 1750.8083
55.2418 1222.5560
57.3957 1227.2266
67.0296 1681.4507
70.0205 8930.7103
70.0452 13548.5036
77.3713 1638.8724
82.0294 3942.4971
84.0452 3155.8010
88.1654 1516.3656
97.2068 1656.4692
97.6762 1496.3654
103.3394 1159.6894
127.0509 25665.2878

Name: UMETA00078 (4-Aminobutyric acid )
Compound Id: UMETA00078
Precursor_type: [M-H]-
PrecursorMZ: 102.0560
Comment: 0.85_102.0560m/z
Formula: C4H9NO2
Num Peaks: 16
50.9029 679.6305
51.1691 625.7932
52.0455 635.4690
58.8301 673.8000
69.9928 656.1549
70.0074 3265.3730
70.5363 2726.2837
71.2815 546.5819
71.7301 783.5592
72.0357 642.8386
77.7848 592.1517
79.8104 797.5452
94.8408 673.2458
97.2065 2160.4976
102.0495 898.0719
102.0560 36051.1074

Name: UMETA00027 (Glutamic acid / N-Methyl-D-Aspartic acid)
Compound Id: UMETA00027
Precursor_type: [M-H]-
PrecursorMZ: 146.0458
Comment: 0.85_147.0531n
Formula: C5H9NO4
Num Peaks: 17
50.4407 5508.8665
51.1531 4358.1960
51.2168 6077.7018
55.2457 5913.2793
60.7690 5754.5547
61.3031 5422.0710
66.9823 5432.7171
68.7235 5063.5417
69.1776 55851.3021
69.7884 29491.6849
70.5409 14200.5729
78.0064 5304.9206
97.2057 34120.2350
102.0560 470622.0905
106.7669 5163.0820
128.0352 161251.5833
146.0457 45066.0866

Name: UMETA00027 (Glutamic acid / N-Methyl-D-Aspartic acid)
Compound Id: UMETA00027
Precursor_type: [M-H2O-H]-
PrecursorMZ: 128.0353
Comment: 0.85_147.0531n
Formula: C5H9NO4
Num Peaks: 17
50.7842 1196.4719
57.5222 1263.5421
62.7850 1274.2612
64.7091 754.5972
67.0457 912.9773
69.2672 9068.7656
69.9273 7902.8509
69.9850 1500.8136
69.9911 1574.3350
83.8353 1289.8468
92.9577 738.5701
97.0426 1196.6862
97.2063 4836.5202
106.9469 1160.2341
116.6387 1165.9669
127.8701 2940.8490
128.0352 32297.0430

Name: UMETA00445 (ser-galnac)
Compound Id: UMETA00445
Precursor_type: [M-H]-
PrecursorMZ: 307.1148
Comment: 0.85_307.1148m/z
Formula: C11H20N2O8
Num Peaks: 14
65.2557 2171.7371
69.9623 3656.7527
101.0242 2560.1509
102.0559 2196.1714
109.0406 2651.5754
127.0511 12603.0352
128.0352 8351.7969
132.9178 4723.2344
137.0046 2222.2429
145.0619 53476.1523
146.0458 4747.1274
146.8697 2158.6011
221.2271 1629.3206
254.5133 1853.5364

Name: Unknown (0.86_131.0825m/z)
Charge: 1-
PrecursorMZ: 131.0825
Comment: 0.86_131.0825m/z
Num Peaks: 23
50.5179 915.6545
54.0146 2125.1855
64.3073 1883.4479
68.2457 1901.4883
69.7632 3872.6338
69.7911 12792.5957
69.9597 6046.7466
69.9873 3347.2557
71.0134 725.7864
73.5027 2024.7461
73.8809 618.5367
74.2664 668.4091
78.7679 938.7817
81.3045 1731.2922
83.0613 7755.7944
83.3871 876.9107
85.0771 1390.4465
88.0402 4346.5915
97.2051 4481.7585
113.3324 589.4325
118.8538 1797.3701
125.0818 573.6523
131.0825 265096.7314

Name: Unknown (0.86_135.0299m/z)
Charge: 1-
PrecursorMZ: 135.0299
Comment: 0.86_135.0299m/z
Num Peaks: 32
53.0334 597.3227
55.8704 804.2266
58.4564 624.7408
59.0133 1991.1598
61.2982 805.0127
61.7942 687.5645
61.8804 632.1700
62.7410 641.8724
63.3227 612.6848
68.3758 1215.2703
69.2042 619.9695
69.9063 4084.2357
71.7293 717.5060
72.9927 1302.9269
73.6285 619.2522
75.0085 27571.8457
82.3273 644.8435
85.0586 644.6873
86.8259 577.0885
87.9251 662.6327
97.2060 943.8026
98.3820 619.2426
99.1653 626.4045
99.9258 6236.8005
100.1113 577.6321
101.1019 679.3205
122.8944 884.7917
124.4931 582.8430
131.5542 553.4211
133.8810 873.6062
134.8655 25941.3880
134.8947 37093.5912

Name: UMETA00018 (Citrulline)
Compound Id: UMETA00018
Precursor_type: [M-H]-
PrecursorMZ: 174.0883
Comment: 0.86_174.0883m/z
Formula: C6H13N3O3
Num Peaks: 29
56.2857 1571.6063
56.8288 1033.0059
65.2672 1464.9196
67.6154 1506.7167
68.6883 1558.1248
69.3365 1621.3699
69.7670 5696.2974
70.1352 8809.6289
74.7613 901.9653
74.8464 1122.0596
82.1667 900.3455
88.0403 6649.0955
88.0963 1562.8346
96.1351 1106.6455
97.2056 5149.7922
102.0558 1482.6746
111.4980 1419.8898
112.5684 1686.9720
116.9286 1241.2813
131.0825 428254.1064
131.0902 6367.4532
132.0300 3740.8757
137.6716 1673.1456
138.7869 1443.2388
145.0618 3517.4042
146.6534 1684.1764
146.9607 15134.1582
173.8426 3620.5812
174.0886 3103.3568

Name: UMETA00338 (Fructose / Hexose / myo-Inositol)
Compound Id: UMETA00338
Precursor_type: [M-H]-
PrecursorMZ: 179.0560
Comment: 0.86_179.0560m/z
Formula: C6H12O6
Num Peaks: 33
55.5303 599.6386
57.0341 885.7371
57.6859 591.6400
59.0134 20661.0970
63.9619 929.4055
64.0745 625.7275
69.9668 707.9931
70.0933 7310.0975
71.0134 7497.5983
71.7030 772.8606
72.9927 706.3114
73.0291 9517.8241
75.0085 18705.4811
76.2370 719.1240
78.9856 3541.7832
80.7489 686.8360
85.0293 5785.6249
89.0243 3535.0782
92.2649 718.5526
94.9240 654.2830
97.2032 1772.9705
99.0090 621.6850
102.6098 571.0330
131.0350 2051.1294
132.8642 647.5921
134.8885 1767.9090
137.6576 608.9469
139.8869 622.6384
150.8830 1046.2950
152.0339 572.9882
161.0455 5154.4176
170.5299 642.0327
179.0562 8241.1732

Name: UMETA00013 (Argininosuccinic acid)
Compound Id: UMETA00013
Precursor_type: [M-H]-
PrecursorMZ: 289.1154
Comment: 0.86_290.1227n
Formula: C10H18N4O6
Num Peaks: 50
53.5331 689.9999
53.6367 767.5457
69.2459 6296.1120
69.2642 5215.2373
69.2707 7150.5729
70.0296 1887.0104
71.0136 13402.6826
79.9689 739.0495
81.4750 724.6430
85.2524 831.0751
87.6324 730.3436
88.0403 27008.0384
88.3970 821.8151
92.9278 1888.1250
95.0248 14370.9609
96.0090 13654.6133
97.2023 5886.5705
97.2079 2081.8927
98.0246 738.2781
108.0118 705.6480
112.0516 16569.0153
113.0356 3636.3360
114.0196 3324.6677
114.0558 8522.6910
115.0036 23176.2122
121.1817 727.6729
122.0840 706.2273
125.8731 694.8293
127.8702 15649.2031
128.0352 3070.2048
131.0826 92907.3600
132.0210 1011.2587
132.0301 65383.0482
134.0988 727.7795
141.1031 789.6917
143.8642 1935.7801
144.8730 6901.5814
148.9096 1330.7226
156.0410 913.5081
156.0780 22354.1488
156.0896 843.7222
157.0562 695.6847
168.6316 754.0761
169.4382 711.3993
173.1041 22878.3245
183.0101 746.1978
185.0932 10880.5277
210.0887 709.4521
211.0726 7645.4743
229.0826 5094.5154

Name: UMETA00416 (Sialic acid)
Compound Id: UMETA00416
Precursor_type: [M-H]-
PrecursorMZ: 308.0988
Comment: 0.88_309.1060n
Formula: C11H19NO9
Num Peaks: 15
57.4932 1813.0945
61.9627 2013.9678
63.0020 1936.9196
65.6090 1974.5576
71.7030 2524.6768
87.0085 11619.0127
102.0559 12961.7910
127.8414 1914.8423
128.0352 11528.0068
132.9174 2048.4363
133.3176 2180.7930
146.0455 19162.4531
156.7851 2284.8015
178.6458 2185.0574
199.5105 1792.2511

Name: UMETA00339 (Sedoheptulose / Mannoheptulose)
Compound Id: UMETA00339
Precursor_type: [M-H]-
PrecursorMZ: 209.0666
Comment: 0.89_209.0666m/z
Formula: C7H14O7
Num Peaks: 21
50.5353 607.8967
52.8084 650.1525
55.7648 703.2345
57.0882 712.6969
61.0789 679.9644
69.1720 7210.7393
69.7648 4089.9466
69.7716 4488.9206
74.2630 629.5085
75.9022 716.8888
79.9614 649.0360
95.0191 1638.2051
95.0250 62293.8385
97.2051 5380.5979
104.0351 618.6477
114.9513 1404.2164
127.8700 18530.4466
129.1187 578.8343
129.8670 6629.7760
130.9220 2359.7132
164.8359 5731.8051

Name: UMETA00007 (Alanine / β-Alanine / Sarcosine)
Compound Id: UMETA00007
Precursor_type: [M-H]-
PrecursorMZ: 88.0403
Comment: 0.92_88.0403m/z
Formula: C3H7NO2
Num Peaks: 8
51.8800 2179.2424
58.8352 1880.1300
64.3537 1789.1516
65.4027 2013.9395
70.9352 3667.0105
81.8041 1774.8945
84.2498 1841.4427
88.0404 17880.5449

Name: Unknown (0.99_119.0349m/z)
Charge: 1-
PrecursorMZ: 119.0349
Comment: 0.99_119.0349m/z
Num Peaks: 27
50.8977 606.7956
52.7622 617.3189
55.5039 617.7615
59.0133 14204.4434
61.0490 609.8496
62.3697 592.3379
62.9773 569.9714
64.6990 756.4846
70.1357 583.1224
70.1553 3515.5020
70.1772 5645.0391
73.0288 855.4234
75.0077 587.4384
80.5480 619.8387
81.8118 645.1979
82.4889 587.9019
89.6618 667.0430
92.7931 661.7506
93.7243 657.5273
95.2666 708.7989
97.2050 1423.8394
101.9240 1503.7193
109.3351 609.7633
110.2304 601.2500
118.9179 635.1396
118.9266 601.0860
119.0345 1641.9049

Name: UMETA00168 (Malic Acid)
Compound Id: UMETA00168
Precursor_type: [M-H]-
PrecursorMZ: 133.0142
Comment: 1.09_134.0215n
Formula: C4H6O5
Num Peaks: 17
51.9989 618.2209
53.3258 609.7971
58.8977 607.3236
59.1449 647.8337
62.1420 601.6322
64.3991 649.4204
66.5962 633.6395
69.6278 605.1176
69.9308 3562.6019
69.9571 7676.7487
71.0135 644.8345
72.9929 1053.4198
78.2442 648.0903
79.1539 652.3879
82.5085 646.4164
85.1970 661.2917
97.2028 1623.9188

Name: Unknown (1.15_90.0314n)
Precursor_type: [M-H]-
PrecursorMZ: 89.0243
Comment: 1.15_90.0314n
Num Peaks: 15
50.3528 541.9160
50.4295 562.6429
55.8672 627.4986
56.7772 558.2215
57.8562 684.7434
59.9568 577.1430
60.8072 644.9924
61.2326 532.8572
66.3148 665.0265
67.2155 677.9719
69.1830 561.4965
69.9607 1656.6704
70.9029 2467.9929
75.3074 697.4457
78.1459 634.6352

Name: UMETA00169 (Malonic acid)
Compound Id: UMETA00169
Precursor_type: [M-H]-
PrecursorMZ: 103.0037
Comment: 1.16_103.0037m/z
Formula: C3H4O4
Num Peaks: 4
54.4539 1954.3010
58.3251 2019.9033
59.9162 2152.4253
70.5117 2287.3188

Name: UMETA00322 (Pseudouridine)
Compound Id: UMETA00322
Precursor_type: [M-H]-
PrecursorMZ: 243.0622
Comment: 1.26_243.0622m/z
Formula: C9H12N2O6
Num Peaks: 27
50.6373 584.0845
51.4211 682.2831
51.4367 717.2105
51.9442 670.1624
52.9426 716.8207
69.4879 5252.2358
69.5079 9973.0101
70.3352 737.9937
79.2797 604.6808
82.0296 3389.0463
83.0137 651.1894
97.2049 7195.4154
99.9256 6567.8789
100.7947 645.8278
105.2351 610.9915
106.4839 688.2350
110.0248 15966.5838
110.9775 666.0296
111.0200 3050.3509
140.0358 9700.1989
153.0305 84325.3347
155.9517 680.3642
173.9632 2048.3671
174.0210 642.9272
183.0413 4993.0402
192.6734 665.7583
240.7178 561.4146

Name: UMETA00143 (Citric acid)
Compound Id: UMETA00143
Precursor_type: [M-H]-
PrecursorMZ: 191.0195
Comment: 1.62_192.0268n
Formula: C6H8O7
Num Peaks: 36
50.7365 1529.4342
52.9886 477.0786
54.1807 1667.1244
56.5778 479.5902
57.0341 51355.5371
58.6744 1756.9110
59.0132 3857.8857
64.0031 1342.1505
66.7559 1628.8634
67.0185 46051.2607
68.9358 481.1117
69.4067 1473.5458
69.9516 13408.4517
70.0140 6962.3047
70.7800 1710.6541
70.8316 1409.0914
70.8767 1734.7240
70.8837 1357.5093
70.9962 2005.0499
74.3741 502.3559
75.5372 444.1657
80.9165 2444.2351
85.0292 38214.3975
87.0084 118767.1082
88.7622 561.1299
96.3883 1324.9911
97.2063 7236.3856
111.0087 85877.5170
116.9040 776.2007
116.9913 1460.8933
123.0646 1720.4319
128.6202 1610.6460
132.6141 1645.8988
134.9146 8494.3912
154.3026 1271.4081
185.1045 1284.9821

Name: UMETA00325 (Uric acid)
Compound Id: UMETA00325
Precursor_type: [M-H]-
PrecursorMZ: 167.0209
Comment: 1.65_167.0209m/z
Formula: C5H4N4O3
Num Peaks: 26
51.1994 2841.1608
51.5191 671.3358
52.4323 589.8699
53.6415 4445.0465
55.3720 592.4184
67.7834 2880.2637
69.0091 292617.8893
69.9655 16223.5872
70.2589 17853.1580
71.7046 5360.9824
72.7072 4680.2054
78.8636 4661.7406
95.7107 8978.6751
96.0203 410790.5612
97.0042 107823.4694
97.2057 5723.5645
97.8633 676.4867
98.3102 4595.8454
100.0378 3042.8695
114.9515 1244.0364
123.0314 23778.7357
124.0152 1770112.9345
127.6358 4451.3086
142.0258 31702.3861
161.6479 2802.4375
167.0209 1955975.2012

Name: UMETA00133 (5-Oxoproline)
Compound Id: UMETA00133
Precursor_type: [M-H]-
PrecursorMZ: 128.0353
Comment: 1.66_128.0353m/z
Formula: C5H7NO3
Num Peaks: 24
55.6798 670.2900
60.2046 614.8626
60.4299 667.4016
63.3014 662.0837
64.5136 620.3265
68.0959 671.9280
70.0328 2894.5244
70.2358 706.6386
70.2429 2616.0223
70.2616 3813.9141
71.0987 612.4787
75.0644 686.2563
76.1048 748.1194
78.7561 666.2152
82.0297 700.3527
97.2025 2156.1134
100.4747 814.2048
103.4966 636.7299
106.2142 646.2089
110.5236 656.1060
110.5769 627.6554
127.3151 716.4446
127.8704 1658.8226
128.0352 34082.8433

Name: UMETA00712 (Maleic acid)
Compound Id: UMETA00712
Precursor_type: [M-H]-
PrecursorMZ: 115.0036
Comment: 1.69_115.0036m/z
Formula: C4H4O4
Num Peaks: 12
50.6619 1948.1224
51.9859 1795.3866
70.2559 6852.6074
71.0137 17990.4609
73.6701 2091.3372
81.1443 1910.8228
88.5393 2259.6289
93.7680 1819.5448
97.9310 2930.9980
99.9257 12315.5088
114.9339 3781.8225
114.9514 8356.6963

Name: UMETA00311 (Hypoxanthine)
Compound Id: UMETA00311
Precursor_type: [M-H]-
PrecursorMZ: 135.0312
Comment: 1.70_135.0312m/z
Formula: C5H4N4O
Num Peaks: 18
50.1727 758.3340
59.4649 706.2391
61.4371 628.3304
62.4967 620.4819
64.7684 674.3346
65.0140 12361.1912
69.7781 4141.6322
69.9308 7876.9106
79.1152 550.4530
92.0201 846.1038
92.0254 52460.7344
93.4053 684.4751
97.2063 1161.9631
97.9855 622.0608
119.2865 627.2100
134.8654 584.9824
134.8946 5168.2362
135.0313 14278.2100

Name: Unknown (1.71_103.0400m/z)
Charge: 1-
PrecursorMZ: 103.0400
Comment: 1.71_103.0400m/z
Num Peaks: 5
51.5370 1908.1814
59.0134 19996.4277
62.4534 2077.3730
70.4847 7352.3232
97.2043 2097.5972

Name: Unknown (1.73_206.0492m/z)
Charge: 1-
PrecursorMZ: 206.0492
Comment: 1.73_206.0492m/z
Num Peaks: 38
51.2713 656.0037
60.9750 1964.3896
62.4091 616.4162
63.9621 971.4884
67.9482 786.5903
69.1486 677.7170
69.7755 5500.2922
69.9329 3362.8018
72.0089 44435.6282
75.2979 753.0916
76.9702 1878.4963
77.0064 777.9417
79.9568 1803.7561
84.0452 9766.8936
86.0068 1021.5721
86.0247 18310.6523
86.4258 610.6765
86.5397 729.9370
89.2264 608.5525
92.5033 564.2851
97.2043 2062.1392
98.0612 23277.7122
105.3310 639.1153
112.0402 630.6113
114.0196 703.5236
115.0273 8459.8789
116.9483 716.1930
125.8728 1122.4495
127.9536 591.8297
129.3086 628.6079
136.5992 578.4824
141.8743 689.0869
142.0513 6787.1179
144.4984 722.9588
164.0385 8144.9804
187.9163 645.8607
191.0262 4608.1274
206.0494 3147.7528

Name: UMETA00194 (Succinic acid)
Compound Id: UMETA00194
Precursor_type: [M-H]-
PrecursorMZ: 117.0193
Comment: 1.84_118.0265n
Formula: C4H6O4
Num Peaks: 19
51.7351 5131.0716
53.6356 3097.6084
53.7146 3456.8070
56.5394 3324.9902
57.8174 3853.9502
66.1721 4098.3271
67.5828 3307.1263
69.9855 4858.2035
70.0056 4867.0951
70.1933 21606.1810
70.2180 22566.7396
73.0292 567280.7598
74.2331 4858.9385
74.5197 4885.6458
88.1695 3773.4089
99.0085 24231.2174
99.9258 97404.6068
116.9287 83080.2422
117.0198 5205.0098

Name: UMETA00201 (2-Hydroxybutyric acid)
Compound Id: UMETA00201
Precursor_type: [M-H]-
PrecursorMZ: 103.0400
Comment: 1.85_103.0400m/z
Formula: C4H8O3
Num Peaks: 12
57.0341 51704.5948
58.9586 1074.0342
67.9467 1115.3137
69.9534 966.9078
69.9903 2763.5273
70.5101 3810.5266
73.0291 10323.9727
77.0120 1004.9741
81.5752 989.8901
97.2029 2230.9095
103.0340 860.4338
103.0401 22783.0098

Name: UMETA00048 (N-Acetylglutamic acid)
Compound Id: UMETA00048
Precursor_type: [M-H]-
PrecursorMZ: 188.0564
Comment: 1.92_189.0637n
Formula: C7H11NO5
Num Peaks: 42
50.6475 713.1177
52.7874 626.0514
58.0292 6260.7080
59.0134 13544.9873
61.9877 697.3701
65.9383 656.0384
69.9605 3946.8753
69.9844 7816.8555
70.7091 745.1164
72.3053 764.7323
74.5838 667.1097
78.9186 10842.8037
79.9572 17689.7331
80.1948 743.2996
80.2533 739.6069
82.6622 708.4985
84.0455 752.5118
97.2051 3284.0537
99.0461 683.9381
99.9256 3070.3292
100.0764 5071.3002
102.0559 40174.4779
107.4861 645.7032
108.0455 63402.1971
114.9070 3547.2574
114.9492 713.3104
116.8050 673.2963
116.9224 1378.3472
117.2114 664.6981
122.1325 563.8312
126.2458 635.3449
128.0353 14475.3363
128.1706 602.4653
131.2144 611.3369
132.9178 31014.5273
141.8681 2663.3834
143.8990 643.5008
144.8975 2135.5461
147.6716 639.1490
158.4140 686.3331
174.4399 616.2459
184.2458 695.1125

Name: Unknown (12.76_111.0432n)
Precursor_type: [M-H]-
PrecursorMZ: 110.0360
Comment: 12.76_111.0432n
Num Peaks: 50
51.2643 116.3636
51.2983 115.0868
51.3584 112.3434
51.3816 107.6511
51.7872 128.0530
52.1202 105.8048
54.9286 107.0555
54.9815 108.5395
55.7778 105.9138
56.2643 107.8131
57.5289 105.5291
58.4282 129.5883
61.2733 119.9168
61.3417 116.8910
61.4117 108.6750
63.3142 113.8066
64.0055 240.1084
65.0142 1915.6512
65.5542 194.9763
65.6514 116.4556
65.8909 113.3219
65.9976 118.3026
66.0093 7971.0885
66.0413 107.9720
67.0184 1148.5354
67.1588 107.2295
67.2805 116.6518
68.0138 14175.9092
68.6601 113.8127
70.3519 4975.8176
70.3588 1312.8351
70.3644 1565.3124
72.3320 121.2931
72.9534 113.3718
77.6180 105.5079
78.0564 113.9198
78.4662 115.8446
87.1922 111.8096
91.0354 123.8275
93.1632 123.5626
95.4270 117.6561
95.5076 119.2027
95.5237 112.6349
97.0673 118.7296
97.2058 681.1327
98.4149 104.8204
101.9437 115.1857
103.3652 114.4859
105.4678 106.5668
110.0360 618.0658

Name: UMETA00318 (Uracil (2))
Compound Id: UMETA00318
Precursor_type: [M-H]-
PrecursorMZ: 111.0199
Comment: 2.02_111.0199m/z
Formula: C4H4N2O2
Num Peaks: 14
50.3278 670.3101
51.6917 630.2061
52.9285 615.2529
53.4179 690.5870
53.8056 700.7199
65.0525 613.8162
70.3103 2944.1016
70.3330 6669.0023
82.0558 650.8765
100.0694 606.0101
100.3330 612.0474
101.8318 651.2900
109.8450 583.7542
111.0196 8076.3052

Name: Unknown (2.15_151.0261m/z)
Charge: 1-
PrecursorMZ: 151.0261
Comment: 2.15_151.0261m/z
Num Peaks: 15
50.1868 610.1941
50.7746 608.9952
50.7880 588.4633
70.5078 2385.8171
70.5310 5365.1180
71.3346 742.6677
97.2027 744.6841
101.6768 625.8671
103.9711 645.8972
108.0135 1892.9789
108.0203 57498.6566
126.0309 2649.4080
136.0165 2821.6338
143.6404 626.4989
151.0260 66793.3830

Name: UMETA00075 (Tyrosine)
Compound Id: UMETA00075
Precursor_type: [M-H]-
PrecursorMZ: 180.0666
Comment: 2.83_180.0666m/z
Formula: C9H11NO3
Num Peaks: 42
51.1409 656.5240
55.9959 648.6725
62.4597 755.5938
64.5888 661.2630
66.8252 620.2321
67.9176 661.6567
70.0586 3807.5342
70.0820 7494.1784
71.8223 594.0509
72.0088 27347.7233
72.4527 637.0804
74.0244 4718.9182
78.6864 746.9456
79.6193 773.3434
79.9492 673.8431
82.2331 676.3246
82.2428 700.1863
85.0556 608.6816
88.3197 620.2210
92.9196 2395.6219
93.0343 19670.8509
95.9183 635.6647
97.2022 1714.4159
97.2082 2334.0921
99.4239 715.0126
104.2166 668.0430
105.7432 668.9775
106.0421 1341.3478
118.6628 725.4182
119.0503 47390.1132
119.0830 633.8485
123.8231 608.2767
134.0609 791.0238
136.0774 857.9236
150.3760 720.6383
151.6944 673.6750
161.8606 650.0580
163.0400 78705.0898
163.0528 770.4926
163.8932 649.9937
180.0514 1118.6774
180.0665 80679.2319

Name: UMETA00152 (Glutaric acid)
Compound Id: UMETA00152
Precursor_type: [M-H]-
PrecursorMZ: 131.0349
Comment: 3.29_132.0422n
Formula: C5H8O4
Num Peaks: 21
55.0344 651.2796
58.4535 707.1617
62.3096 660.1255
66.4121 798.1229
67.1064 624.2476
69.0340 14760.6852
69.2862 525.8349
69.9679 3561.7614
69.9880 8275.4043
83.1270 655.3004
83.8594 618.7862
84.3633 592.5269
85.2648 657.8391
86.5327 667.4585
87.0451 91165.3288
97.2053 1084.4845
101.7517 572.7148
109.6912 627.7463
113.0243 2364.9924
118.9660 3226.2982
131.0348 3250.6884

Name: UMETA00056 (Phenylalanine)
Compound Id: UMETA00056
Precursor_type: [M-H]-
PrecursorMZ: 164.0717
Comment: 3.65_164.0717m/z
Formula: C9H11NO2
Num Peaks: 27
50.2452 599.1995
50.9864 662.3482
51.7700 646.0903
70.2875 3066.8594
70.3083 4700.1623
70.7076 673.9980
72.0088 109458.2969
78.6277 748.2404
80.1790 639.5975
82.2979 683.1742
82.6605 584.8657
83.6079 651.6072
88.6848 687.0119
91.0552 14430.6201
96.2696 579.7043
97.2041 3515.1844
103.0553 11590.5498
113.7613 675.6146
122.0359 6011.4857
136.9321 692.1528
140.0466 752.8168
144.7192 613.1797
145.5168 688.4708
146.5662 664.2538
147.0452 328516.1523
150.0181 2119.6342
164.0717 171068.6484

Name: UMETA00381 (Pantothenic acid)
Compound Id: UMETA00381
Precursor_type: [M-H]-
PrecursorMZ: 218.1034
Comment: 3.65_218.1034m/z
Formula: C9H17NO5
Num Peaks: 30
50.7461 595.3913
53.1622 702.8253
53.1831 606.6171
53.4691 1454.3320
56.3990 623.8843
64.4611 636.9321
69.4765 633.1003
69.6747 4598.4587
69.6910 9448.0331
71.0134 3015.7516
71.0500 12093.7002
79.9570 2467.5916
80.9648 1502.7161
82.6631 783.1387
88.0404 35316.0964
91.5146 710.1809
91.8764 638.5184
94.3203 644.1367
97.2063 5713.8889
99.0454 1510.9968
100.7781 687.7063
123.0084 765.7183
124.0167 3046.3171
125.1831 678.6301
136.1310 623.5078
139.0392 1770.6078
142.5264 643.8686
146.0824 16238.5518
181.2252 626.5492
209.7536 551.4525

Name: UMETA00107 (3-Hydroxyglutaric acid)
Compound Id: UMETA00107
Precursor_type: [M-H2O-H]-
PrecursorMZ: 129.0194
Comment: 3.88_129.0194m/z
Formula: C5H8O5
Num Peaks: 17
50.1797 598.5492
52.1004 648.3110
52.5259 752.6234
58.6607 708.9306
61.1549 738.6444
65.9290 658.4971
66.6179 600.5039
69.9993 3461.9404
70.0180 8100.3638
70.9744 575.3806
72.6696 706.3639
75.4700 589.1243
87.9557 691.5728
97.2054 828.7073
100.1359 786.4488
115.2174 586.2975
128.8779 1021.3132

Name: UMETA00119 (3-Methylglutaric acid)
Compound Id: UMETA00119
Precursor_type: [M-H]-
PrecursorMZ: 145.0506
Comment: 3.96_146.0579n
Formula: C6H10O4
Num Peaks: 28
54.6400 1189.2761
58.7744 1106.5747
59.7101 1053.9138
60.5973 760.4848
60.7483 1121.9846
63.1049 968.1851
69.7832 3907.3301
69.8038 14166.6081
72.4146 1009.1690
76.4616 1018.0061
79.7407 1161.4246
81.0343 25964.2611
81.8020 1011.7543
83.0501 45640.0063
83.4979 1042.8114
91.1470 973.3246
96.0388 631.3382
97.2049 2903.1545
98.5790 1017.9162
101.0608 23471.3440
101.2831 1011.7215
102.0805 724.5470
102.4878 946.7092
107.5769 1005.5323
107.7943 985.4198
116.2102 991.3951
120.8599 856.6269
129.3160 1026.1460

Name: UMETA00111 (3-Hydroxy-5-octenedioic acid)
Compound Id: UMETA00111
Precursor_type: [M-H]-
PrecursorMZ: 187.0612
Comment: 4.07_188.0685n
Formula: C8H12O5
Num Peaks: 36
51.4021 588.6434
59.0134 60779.3891
61.6097 613.8332
61.9879 12659.9434
69.0341 852.4292
69.9788 3952.7425
69.9977 7403.7340
70.5464 605.6745
70.7368 606.9440
71.0132 11255.2132
71.0499 78895.1626
80.1544 650.9138
81.0342 1031.1613
83.0501 31593.3522
84.9382 1574.9780
97.0295 24189.6201
97.2043 4726.3695
99.9256 2062.5716
104.1207 676.2360
109.0292 2081.2859
115.0400 96077.7297
117.3096 677.1452
123.8202 704.7634
125.0607 57906.1185
125.8723 1102.8612
127.0399 5799.1460
130.9221 2015.9611
131.9215 5786.0558
141.8680 25641.3639
143.0707 7949.8481
143.8987 711.7903
151.0401 13966.3356
159.8792 3417.6565
169.0505 26308.2032
170.3365 724.4210
187.0608 19575.5475

Name: UMETA00051 (N-Acetylmethionine)
Compound Id: UMETA00051
Precursor_type: [M-H]-
PrecursorMZ: 190.0544
Comment: 4.13_190.0544m/z
Formula: C7H13NO3S
Num Peaks: 42
52.1287 699.2067
56.5704 723.9034
57.0340 4295.7790
58.9584 11980.5308
61.9879 2589.0483
69.8250 734.9867
69.9435 3082.8913
69.9627 8235.3864
73.9157 621.8783
76.9227 734.4218
80.9165 19407.2891
83.3165 612.4555
84.0453 25062.1582
85.0292 6455.3993
87.0087 16962.0745
87.9250 839.8503
89.1975 652.4436
90.8571 982.4945
97.2037 3637.7190
98.0608 13020.5788
102.9488 30254.8294
107.0993 692.1335
109.2795 638.9926
110.0331 717.6410
111.0087 29156.0286
112.0401 4273.2603
115.9058 698.7093
116.9042 3513.0979
118.9196 1937.1710
133.9178 2685.6392
134.9147 26602.2611
142.0509 27234.4193
143.8652 9292.4142
146.8986 1692.3691
146.9389 961.4939
148.0437 36863.6406
152.6841 749.4467
161.8747 863.9823
162.8931 1274.0618
162.9095 742.9205
188.7440 624.1073
190.0541 7378.2839

Name: UMETA00128 (4-Hydroxyphenyllactic acid)
Compound Id: UMETA00128
Precursor_type: [M-H]-
PrecursorMZ: 181.0506
Comment: 4.20_182.0579n
Formula: C9H10O4
Num Peaks: 28
52.6316 597.3674
59.3721 699.6746
61.6773 618.7743
62.2959 660.7744
65.5571 652.5667
66.7764 649.1331
69.5099 564.8466
70.0509 3287.0648
70.0718 7564.7676
72.9928 25050.7865
75.2628 647.6991
75.3017 661.2379
92.9200 1644.6932
93.0340 3503.1583
97.2032 2166.7779
98.4562 581.1437
107.0498 11402.6875
108.1316 601.9854
117.0342 1619.8892
119.0498 22269.5065
121.0288 2520.1809
122.8346 803.4906
133.0290 617.8778
134.0372 47618.1484
135.0453 35116.9434
139.5892 575.9300
163.0400 763.9710
178.6841 644.7255

Name: Unknown (4.23_131.0714m/z)
Charge: 1-
PrecursorMZ: 131.0714
Comment: 4.23_131.0714m/z
Num Peaks: 17
50.4087 614.4041
55.3920 609.4630
57.2817 621.9593
59.0134 10978.2472
63.2459 677.4104
65.2955 597.2137
65.6549 589.7586
68.4901 649.5612
69.9708 3720.8076
69.9911 4109.3242
71.7304 626.5422
90.6009 657.6370
95.5924 612.5198
97.2062 1414.3245
98.0959 597.5097
109.8133 541.1523
118.9661 2094.8826

Name: UMETA00074 (Tryptophan)
Compound Id: UMETA00074
Precursor_type: [M-H]-
PrecursorMZ: 203.0826
Comment: 4.33_203.0826m/z
Formula: C11H12N2O2
Num Peaks: 43
50.4556 694.1672
53.0660 599.2491
53.2502 773.6846
54.7166 753.6406
55.1722 781.4301
59.2565 645.6111
63.0602 734.1887
63.3275 711.6687
66.6664 690.1313
67.6607 735.6675
69.8107 5335.9919
69.8262 3828.7861
70.0237 4020.1234
72.0088 30011.0371
74.0245 156235.4604
81.1873 733.4217
82.9113 699.9734
86.8289 667.4268
90.0699 640.1561
97.2018 1907.3718
97.2074 2110.2240
98.2711 579.8063
113.8364 818.7979
116.0505 330528.9766
116.0567 2141.9181
120.2797 746.0557
123.8780 637.0638
130.0659 10791.2793
142.0556 1168.6930
142.0661 99800.0804
144.4388 593.7871
151.5227 667.7338
158.9232 5435.9705
159.0928 4364.8718
159.6798 650.2434
173.6507 600.9874
174.9184 30390.6798
176.9344 7135.8161
178.2652 715.4307
186.0564 2431.0268
192.9287 40519.3451
193.8931 1080.3050
203.0829 3973.6226

Name: UMETA00095 (2-Keto-3-methylvaleric acid)
Compound Id: UMETA00095
Precursor_type: [M-H]-
PrecursorMZ: 129.0557
Comment: 4.37_129.0557m/z
Formula: C6H10O3
Num Peaks: 33
52.8042 485.3761
53.5684 451.3481
54.5268 511.3262
55.8198 549.8077
56.9053 419.3915
58.3737 546.3630
58.4428 517.9057
59.3609 544.6320
62.3564 492.4648
68.2174 461.8104
68.7719 505.1893
70.0021 2680.2147
70.0162 2301.1104
70.0218 5960.1828
73.8460 460.6100
74.4747 523.6482
74.8552 432.8091
75.5261 436.4135
76.7724 443.5813
78.3413 489.6148
80.6796 509.0014
91.3763 461.6115
91.5146 467.3214
93.2483 468.3831
95.5445 433.4837
96.6805 483.2177
96.7505 464.6688
97.2057 1191.8258
100.9446 417.0028
103.8078 455.7487
116.5457 508.6501
128.8777 6076.4143
128.8867 532.2136

Name: UMETA00156 (Hexanoic acid / Trans-cyclohexane-1,2-diol)
Compound Id: UMETA00156
Precursor_type: [M-H]-
PrecursorMZ: 115.0764
Comment: 4.43_115.0764m/z
Formula: C6H12O2
Num Peaks: 14
50.6671 777.8949
63.7306 711.9264
68.5634 668.7667
69.9948 728.7328
70.2394 50658.4948
71.4320 8364.4818
71.7332 1809.4413
71.7457 9088.7266
74.4819 10562.9043
80.5823 8057.1829
97.2034 812.9173
97.9312 2777.4775
99.9257 14710.9082
108.8902 723.5125

Name: IS_003 (Dimethyl - 3,3 - glutaric acid)
Compound Id: IS_003
Precursor_type: [M-H]-
PrecursorMZ: 159.0662
Comment: 4.43_160.0736n
Formula: C7H12O4
Num Peaks: 22
54.5130 1989.8026
55.9462 2663.6929
56.3310 2927.5365
59.0133 48486.6341
59.3768 1160.0396
69.0342 19933.7702
70.3704 8035.8405
70.3918 17771.9508
72.2782 1309.8483
75.6033 2151.3350
78.3390 2248.5365
95.0502 93301.8311
97.0658 31292.9502
97.2008 3030.8610
97.2061 6708.7021
99.6162 2483.9551
101.8961 2498.1066
102.9270 2337.2640
109.3455 2305.9300
115.0763 100462.0957
143.6370 2419.9093
158.4586 2017.8182

Name: Unknown (4.47_146.0691n)
Precursor_type: [M-H]-
PrecursorMZ: 145.0618
Comment: 4.47_146.0691n
Num Peaks: 29
50.0509 746.9600
51.0551 771.0174
52.3011 796.4925
58.0293 781.0184
58.5015 613.3611
63.1122 536.9196
65.0482 642.5241
69.7887 3630.8783
69.8076 4634.7586
71.7361 1012.7742
73.9460 638.4948
74.0242 857.4814
74.7923 730.8081
75.4023 672.1658
79.8518 609.0240
81.4459 636.0262
84.0454 1814.7655
87.9248 1811.4039
92.9573 664.2332
94.0497 638.6200
95.5737 585.0240
97.2042 2498.6137
108.0996 670.9523
109.0407 1141.9805
116.9480 620.6494
124.4169 599.9430
127.0515 4592.3464
128.0358 772.4535
145.0625 941.0833

Name: UMETA00010 (alpha-N-Phenylacetylglutamine)
Compound Id: UMETA00010
Precursor_type: [M-H]-
PrecursorMZ: 263.1037
Comment: 4.47_264.1109n
Formula: C13H16N2O4
Num Peaks: 17
54.2180 19373.7988
69.3954 146575.2188
70.3822 19297.5273
77.9622 20000.5039
81.0485 20786.2773
91.7418 18819.8086
97.2019 24190.6914
97.2073 31714.0078
109.0407 33202.1797
111.4578 22589.1172
127.0513 471592.0000
128.0349 34808.2344
145.0618 7192194.0625
146.9742 21267.7285
228.9786 22281.8691
245.0932 92692.6406
263.1039 836018.6719

Name: Unknown (4.58_121.0295m/z)
Charge: 1-
PrecursorMZ: 121.0295
Comment: 4.58_121.0295m/z
Num Peaks: 10
61.9537 975.5275
70.1512 7875.1401
70.6719 1026.4587
73.6297 964.0888
81.8524 802.3825
97.2041 2435.2301
103.1202 905.6317
111.1462 895.4822
111.8806 784.8071
117.8577 941.6351

Name: UMETA00039 (Indoxylsulfuric acid)
Compound Id: UMETA00039
Precursor_type: [M-H]-
PrecursorMZ: 212.0023
Comment: 4.65_212.0023m/z
Formula: C8H7NO4S
Num Peaks: 28
54.1034 611.3564
55.2384 778.1628
57.3089 670.4625
57.3904 614.3134
67.9542 618.5257
69.7288 4861.5553
69.7463 8745.7760
71.4347 566.2610
73.6381 724.4347
74.2052 559.8928
74.2857 689.2664
79.9571 592909.5021
80.9649 54889.8411
83.7029 576.3320
90.7457 590.1824
92.0508 4947.1216
92.1807 580.0823
97.2027 3397.5433
117.0750 578.7048
124.8075 611.6928
128.7122 652.6322
132.0458 2842.1336
136.1730 607.2909
163.3713 672.5114
168.6262 652.7800
186.7494 648.0249
197.2659 589.4007
202.2573 745.4924

Name: Unknown (4.72_218.1154n)
Precursor_type: [M-H]-
PrecursorMZ: 217.1081
Comment: 4.72_218.1154n
Num Peaks: 37
50.5111 630.3133
51.7810 676.4381
52.6353 647.7804
59.0134 35247.6707
59.3469 676.6785
60.3425 710.4325
61.0309 659.8573
61.9876 611.0512
69.6874 4623.7080
69.6992 2780.1270
69.7047 6126.1447
72.8556 699.5447
72.9081 657.1932
74.0068 675.0873
75.9036 660.2836
85.0658 1612.7458
97.2026 687.8770
97.2077 3133.2712
108.8786 805.2556
113.0969 1773.9660
125.8731 697.9064
125.9150 597.0907
127.8702 46853.1016
128.8777 12026.5457
130.8556 632.7275
134.8311 645.3571
146.2332 712.0509
155.1076 23721.7754
157.0869 81253.2766
159.8602 2489.4781
162.5678 605.8228
164.9373 709.4032
183.1939 624.5142
193.8387 753.9851
200.1008 688.9648
206.7831 616.8719
217.1073 4914.4810

Name: UMETA00192 (Suberic acid)
Compound Id: UMETA00192
Precursor_type: [M-H]-
PrecursorMZ: 173.0819
Comment: 4.84_174.0892n
Formula: C8H14O4
Num Peaks: 30
54.1083 1795.4790
55.5869 1953.7826
57.0340 93335.2057
61.5303 2060.4881
64.0642 2100.0868
70.1611 7387.4316
70.1762 18528.9609
74.0818 1917.1190
74.2885 1948.3171
81.0344 9491.4871
83.0501 260362.6852
83.2364 1980.5719
90.6180 1745.7251
93.0344 2082.2293
95.4129 1630.7078
97.2041 9269.6348
98.9381 4312.7373
100.9535 18396.8350
109.0660 77628.4336
111.0815 868203.4714
111.0880 10583.4290
113.1030 1808.9907
114.9514 2077.8477
116.9486 60616.8958
128.8783 11207.8271
129.0920 49053.5664
144.9429 13433.8870
147.7852 1800.3455
154.9472 4976.2941
173.0814 35534.1862

Name: Unknown (4.96_84.0808n)
Precursor_type: [M+K-2H]-
PrecursorMZ: 121.0295
Comment: 4.96_84.0808n
Num Peaks: 10
65.0391 2659.5039
65.8723 1702.7958
70.1315 10572.4482
70.4296 1731.3688
74.7838 2096.7793
75.3366 2286.2239
79.8602 1925.7368
92.0209 2572.7505
92.0267 64184.8945
93.0345 7514.8584

Name: UMETA00177 (Nonanedioic acid)
Compound Id: UMETA00177
Precursor_type: [M-H]-
PrecursorMZ: 187.0976
Comment: 5.40_188.1048n
Formula: C9H16O4
Num Peaks: 49
50.2117 715.6345
51.4560 639.6180
57.0341 25130.2194
59.1187 691.9998
61.0155 605.5639
61.9880 25320.1224
67.8082 684.9907
69.0341 2011.4084
69.9802 2779.5947
69.9930 2555.0047
70.0000 4702.1803
71.0998 609.1662
78.4961 696.2214
79.9572 2594.3122
80.9651 886.9890
83.0498 1688.0533
84.9385 6092.8613
85.8328 686.2655
85.9466 2416.7212
87.9282 778.1024
93.1454 641.9306
95.0502 2045.0765
97.0658 91980.3747
97.2053 4029.2800
97.9459 1756.6396
98.9538 2045.1240
99.9258 4549.8669
100.9334 775.1502
106.6455 578.5032
107.0501 17059.1592
114.9492 2153.2998
123.0816 41615.0430
125.0971 578435.1719
125.6514 695.1038
125.8734 2848.3844
129.9365 3489.6729
130.9223 1908.1075
131.9214 5913.3855
132.9177 10442.7607
137.9892 688.8233
141.8681 123178.0495
141.8796 648.3975
142.9443 6966.3672
143.1072 15640.6331
144.9175 701.4234
159.8793 16013.3265
159.9369 3534.3503
169.0874 4750.8991
187.0975 65036.7946

Name: Unknown (5.74_159.1026m/z)
Charge: 1-
PrecursorMZ: 159.1026
Comment: 5.74_159.1026m/z
Num Peaks: 23
59.0134 249508.6295
61.9878 4173.1655
64.2925 762.3222
66.1515 698.8079
68.3316 705.6648
70.3725 2947.8084
70.3904 4755.3203
74.2199 651.8314
79.3005 700.6591
80.8385 702.7319
84.1854 647.4277
97.2055 3567.9957
102.9883 5169.1945
104.3792 621.9374
118.8736 651.8154
123.8780 2895.7146
130.9834 6038.6193
131.9217 2957.6021
132.9174 1949.6566
136.8524 640.1072
146.2883 632.7021
158.8468 3822.1873
159.1028 13944.5638

Name: UMETA00222 (Trihydroxycholanoic acid +tau)
Compound Id: UMETA00222
Precursor_type: [M-H]-
PrecursorMZ: 514.2842
Comment: 6.59_514.2842m/z
Formula: C26H45NO7S
Num Peaks: 30
51.3888 748.4248
52.1069 686.6016
64.2836 818.6759
66.1266 870.9080
67.1082 799.0641
68.9151 21440.6030
68.9261 22325.1211
76.3704 707.3780
79.9572 90801.6771
80.5920 721.9726
80.9650 16341.9167
85.4244 769.4417
86.9103 721.9533
97.2047 17396.8058
100.3870 767.2067
105.8892 721.3712
106.9808 22159.5625
114.7899 766.9832
119.9847 748.1120
120.2297 706.7694
124.0073 22017.9466
133.8915 788.8806
135.7311 683.1130
150.4318 702.0659
151.2830 717.5343
166.5452 632.2639
308.1110 654.4601
463.6600 663.7333
514.2097 1378.3276
514.2847 141784.9010

Name: UMETA00658 (Glycocholic acid)
Compound Id: UMETA00658
Precursor_type: [M-H]-
PrecursorMZ: 464.3019
Comment: 7.45_464.3019m/z
Formula: C26H43NO6
Num Peaks: 50
52.5993 413.0190
52.9811 332.4715
53.1096 390.8996
54.6262 346.9276
54.9501 402.1587
55.8298 416.5447
55.9459 355.9378
57.2418 328.8311
59.9733 361.4299
62.4159 430.7970
63.1305 346.7194
63.7089 361.8449
64.2826 425.9261
64.8694 352.7002
66.2344 337.0933
68.9237 19644.9185
68.9345 18431.1099
68.9411 1362.3589
69.0340 1482.4836
70.9643 415.1047
73.1167 353.2185
73.6710 360.9205
74.0245 198125.3199
75.0212 546.6831
75.0278 3012.2119
76.3692 396.2438
78.7560 341.7133
83.1159 338.8169
84.0612 434.1056
91.6610 350.2499
93.1725 323.8057
95.0498 1324.9873
96.6839 329.8428
97.2030 12520.1715
97.8482 342.9660
97.8697 365.4487
101.5657 405.7842
105.0142 344.2587
111.0258 377.3402
111.4510 343.2467
171.0690 350.8750
177.4279 361.5997
185.5194 381.1353
335.8140 327.5079
340.1502 332.2507
346.1179 349.1415
380.6182 352.3529
403.3027 1719.0046
409.9762 342.6820
453.5750 339.7563

Name: UMETA00239 (Dehydro-epiandrosteronsulfaat (dheas))
Compound Id: UMETA00239
Precursor_type: [M-H]-
PrecursorMZ: 367.1588
Comment: 7.59_367.1588m/z
Formula: C19H28O5S
Num Peaks: 28
52.0047 616.5500
53.7810 746.2091
53.8898 685.5619
55.5692 722.3896
65.7018 648.6206
66.5576 616.0922
66.9408 592.2010
67.5591 763.2005
69.0380 19368.7415
69.0487 10099.7207
69.6404 624.8686
79.9571 47883.4740
82.2303 602.6668
96.9496 2706.3638
96.9600 1355158.4887
97.2013 5161.0181
97.2073 6577.2435
98.9696 677.4986
100.3853 625.6821
110.7787 689.1884
140.6141 949.5487
161.0139 712.4430
177.8110 661.8215
227.4827 762.1812
307.0338 756.5698
338.7093 771.7406
360.6816 772.0407
367.1586 295441.8112

Name: Unknown (7.73_517.3073n)
Precursor_type: [M-H2O-H]-
PrecursorMZ: 498.2894
Comment: 7.73_517.3073n
Num Peaks: 43
50.8556 703.0260
54.3111 781.4503
55.8102 669.2222
59.8979 732.0599
62.1917 686.2587
62.2443 853.4438
68.9199 21769.7432
68.9275 20070.1198
69.1160 782.8102
69.1333 735.7537
79.9572 296288.4632
79.9622 2121.4860
80.9650 64794.5768
84.2606 714.7477
87.0665 683.3079
89.6089 741.7838
94.9804 2149.7747
95.2846 707.2965
97.2049 17954.9889
106.9807 72316.2747
108.2328 739.7211
123.4192 617.8220
124.0073 56838.8268
138.0369 765.7707
141.8689 688.8943
145.1059 772.0453
158.8560 691.4826
179.2612 642.7577
180.7016 866.1000
181.1423 616.9132
201.8945 709.7165
206.6626 705.6715
213.1431 805.6496
222.5228 920.2821
235.9166 749.2818
255.8241 788.7052
259.8369 664.6177
302.6311 733.3998
304.0742 943.1246
320.9949 802.6062
361.7697 757.4279
414.3019 781.5761
498.2896 620035.2865

Name: Unknown (8.07_511.2604n)
Precursor_type: [M-H]-
PrecursorMZ: 510.2531
Comment: 8.07_511.2604n
Num Peaks: 34
54.0931 774.2324
57.2176 838.1312
59.3553 957.9726
59.3626 752.7379
66.4826 764.1510
68.9208 27635.1172
68.9321 13561.7878
74.0246 27902.3861
77.8173 641.1916
79.9572 34298.4538
81.8617 866.0168
96.9600 678203.2597
97.2017 4825.6632
97.2082 11568.0610
104.0654 707.0088
126.9020 697.8553
127.3109 673.3884
133.5476 727.2397
145.0344 751.3477
180.2782 717.1876
208.8096 716.9402
231.6253 732.1885
234.8282 710.1011
269.3802 746.7476
283.4436 917.8836
300.7999 782.4768
301.3571 784.6590
326.8860 776.3826
345.5230 763.0475
382.2999 691.9343
393.8923 720.3104
420.3817 826.3891
430.2982 11970.9111
510.2537 96809.1634

Name: UMETA00209 (Dihydroxycholanoic acid + gly)
Compound Id: UMETA00209
Precursor_type: [M-H]-
PrecursorMZ: 448.3071
Comment: 8.19_448.3071m/z
Formula: C26H43O5N
Num Peaks: 45
54.1734 3455.2269
55.7700 3589.9206
56.5405 4042.4893
58.5231 3725.1995
61.9835 3917.6654
64.5746 3980.3600
68.9349 117994.5469
68.9475 70757.0938
69.0343 4067.9727
72.0450 16852.9264
74.0245 3314060.6504
75.0211 4275.5387
75.0280 15115.1615
77.9033 3695.4102
84.0454 38318.0645
94.7341 3535.2096
95.9604 3465.4782
97.2014 15553.0039
97.2066 56741.0430
97.8806 4412.2438
98.3369 3681.2930
128.3763 3556.7044
154.5007 3699.4355
161.9858 3867.1829
170.9089 4030.0150
173.4599 3577.6973
182.0056 3832.5316
203.2382 3887.9961
221.2614 3928.3548
222.7574 4301.2926
237.7521 3747.6576
253.1146 3986.6803
261.9071 4093.8577
290.2142 3580.2826
297.6490 3798.1725
302.8504 3857.0560
330.2438 5956.7025
344.5009 3621.5667
384.2899 6156.1445
386.3081 93075.0387
387.3116 4261.1286
390.6599 4478.2327
420.2825 4448.8258
435.3030 4006.6898
448.3075 1417125.7656

Name: UMETA00234 (Cholesterol sulfate)
Compound Id: UMETA00234
Precursor_type: [M-H]-
PrecursorMZ: 465.3046
Comment: 9.98_465.3046m/z
Formula: C27H46O4S
Num Peaks: 25
57.4565 709.3597
59.8170 755.2714
63.5751 640.4450
68.9307 25232.4460
68.9360 13174.6185
71.2035 662.9788
75.1598 762.0200
79.9573 20191.6452
89.6103 796.0610
96.9602 456456.0938
97.2034 11435.2497
97.2084 1956.3215
97.8898 668.9842
110.6247 665.2162
121.4980 704.8464
195.9825 714.6729
225.8642 768.4215
232.4132 722.0603
258.4316 713.3869
358.6716 719.0974
368.0110 681.3659
395.0810 754.7740
400.3318 737.1308
431.2107 708.3048
465.3062 99991.8281

